65 100
8 9 2
3 3 1
1 10 3
6 9 2
3 2 1
10 6 1
10 9 1
8 3 3
4 3 1
9 9 4
9 3 1
4 1 4
6 5 2
4 2 1
8 7 2
10 8 1
1 5 1
6 7 2
2 8 2
10 3 2
9 1 1
9 6 2
6 8 1
2 5 1
10 10 2
4 5 3
8 1 2
10 1 2
2 3 1
1 7 1
2 6 2
9 8 2
8 4 1
7 10 1
10 5 1
9 4 1
6 2 2
5 9 3
2 7 1
7 4 2
5 10 1
7 6 2
7 9 4
1 9 1
3 7 2
2 1 1
5 8 1
2 9 1
2 10 1
8 8 1
5 2 1
10 7 2
4 7 1
3 5 1
6 1 1
7 3 1
3 4 1
9 10 1
5 5 1
1 6 1
6 4 1
1 3 1
7 1 1
1 1 1
4 10 1
10 10 
10 10 
10 10 
10 10 
10 10 
10 10 
10 10 
10 10 
10 10 
10 10 
10 10 
10 10 
10 10 
10 10 
10 10 
10 10 
10 10 
10 10 
10 10 
10 10 
10 10 
10 10 
10 10 
10 10 
10 10 
10 10 
10 10 
10 10 
10 10 
10 10 
10 10 
10 10 
10 10 
10 10 
10 10 
10 10 
10 10 
10 10 
10 10 
10 10 
10 10 
10 10 
10 10 
10 10 
10 10 
10 10 
10 10 
10 10 
10 10 
10 10 
10 10 
10 10 
10 10 
10 10 
10 10 
10 10 
10 10 
10 10 
10 10 
10 10 
10 10 
10 10 
10 10 
10 10 
10 10 
10 10 
10 10 
10 10 
10 10 
10 10 
10 10 
10 10 
10 10 
10 10 
10 10 
10 10 
10 10 
10 10 
10 10 
10 10 
10 10 
10 10 
10 10 
10 10 
10 10 
10 10 
10 10 
10 10 
10 10 
10 10 
10 10 
10 10 
10 10 
10 10 
10 10 
10 10 
10 10 
10 10 
10 10 
10 10 
